NAME : STSP_50-2over3.2.3.978.tour
COMMENT : Length = 978
COMMENT : Found by LKH-3 [Keld Helsgaun]
TYPE : TOUR
DIMENSION : 33
TOUR_SECTION
25
18
41
44
24
19
16
13
23
26
46
8
36
7
48
14
12
40
12
1
5
1
3
31
38
21
15
4
28
17
28
4
15
27
11
10
2
22
33
35
33
22
43
39
49
30
6
42
6
30
47
9
20
32
-1
EOF
